Version identifier: 22.1.0.0 | 2022-03-09 | 1a383f8ce
CPXPARAM_Threads                                 1
CPXPARAM_MIP_Strategy_VariableSelect             3
CPXPARAM_TimeLimit                               599.98973428299996
Tried aggregator 1 time.
MIP Presolve eliminated 18 rows and 0 columns.
MIP Presolve modified 1 coefficients.
Reduced MIP has 4502 rows, 10000 columns, and 106054 nonzeros.
Reduced MIP has 10000 binaries, 0 generals, 0 SOSs, and 0 indicators.
Presolve time = 0.06 sec. (48.54 ticks)
Probing time = 0.01 sec. (4.63 ticks)
Tried aggregator 1 time.
Detecting symmetries...
Reduced MIP has 4502 rows, 10000 columns, and 106054 nonzeros.
Reduced MIP has 10000 binaries, 0 generals, 0 SOSs, and 0 indicators.
Presolve time = 0.08 sec. (62.31 ticks)
Probing time = 0.01 sec. (4.63 ticks)
Clique table members: 2990.
MIP emphasis: balance optimality and feasibility.
MIP search method: dynamic search.
Parallel mode: none, using 1 thread.
Root relaxation solution time = 5.14 sec. (4785.94 ticks)

        Nodes                                         Cuts/
   Node  Left     Objective  IInf  Best Integer    Best Bound    ItCnt     Gap

      0     0        0.0000  2290                      0.0000    10909         
      0     0        0.0000   308                  Cliques: 1    11774         
      0     0        0.0000   505                   Cuts: 108    20679         
      0     0        0.0000   720                    Cuts: 17    27382         
      0     2        0.0000    40                      0.0000    27382         
Elapsed time = 163.87 sec. (165065.99 ticks, tree = 0.01 MB, solutions = 0)
      1     3        0.0000  1142                      0.0000    55032         
      2     4        0.0000    42                      0.0000    55497         
      3     5        0.0000   151                      0.0000    62953         
      4     6        0.0000    40                      0.0000    63497         
      5     7        0.0000   189                      0.0000    70413         
      6     8        0.0000   134                      0.0000    77925         
      7     9        0.0000   359                      0.0000    89788         
      8    10        0.0000   560                      0.0000    99087         
      9    11        0.0000   250                      0.0000   106640         
     10    12        0.0000   213                      0.0000   116569         
Elapsed time = 214.52 sec. (212440.83 ticks, tree = 0.04 MB, solutions = 0)
     11    13        0.0000   196                      0.0000   117712         
     12    14        0.0000   203                      0.0000   119505         
     14    16        0.0000   271                      0.0000   123387         
     16    18        0.0000   201                      0.0000   126966         
     18    20        0.0000   190                      0.0000   127776         
     20    22        0.0000   181                      0.0000   130943         
     22    24        0.0000   169                      0.0000   133030         
     25    27        0.0000   250                      0.0000   142507         
     28    30        0.0000   117                      0.0000   144701         
     30    32        0.0000   124                      0.0000   147742         
Elapsed time = 244.05 sec. (239333.51 ticks, tree = 0.73 MB, solutions = 0)
     33    35        0.0000   100                      0.0000   149413         
     36    38        0.0000   132                      0.0000   155941         
     39    41        0.0000    89                      0.0000   159213         
     40    42        0.0000   108                      0.0000   163403         
     43    45        0.0000    88                      0.0000   166105         
     47    49        0.0000    69                      0.0000   169972         
     49    51        0.0000    97                      0.0000   173484         
     50    52        0.0000    65                      0.0000   173844         
     52    54        0.0000    52                      0.0000   176945         
     54    56        0.0000    98                      0.0000   182556         
Elapsed time = 257.98 sec. (252767.97 ticks, tree = 1.70 MB, solutions = 0)
     59    61        0.0000    48                      0.0000   184344         
     60    62        0.0000    75                      0.0000   188419         
     64    66        0.0000    58                      0.0000   190050         
     66    68        0.0000   108                      0.0000   194727         
     68    70        0.0000   102                      0.0000   200227         
     73    75        0.0000    56                      0.0000   200822         
     77    79        0.0000    60                      0.0000   202760         
     81    83        0.0000    95                      0.0000   207370         
     84    86        0.0000    92                      0.0000   213394         
     87    89        0.0000    80                      0.0000   218751         
Elapsed time = 270.81 sec. (265583.45 ticks, tree = 2.95 MB, solutions = 0)
     90    92        0.0000   100                      0.0000   221652         
     92    94        0.0000   105                      0.0000   226341         
     95    97        0.0000   428                      0.0000   237757         
     97    99        0.0000   364                      0.0000   249573         
     98   100        0.0000    67                      0.0000   256374         
    100   102        0.0000   256                      0.0000   268572         
    102   104        0.0000    99                      0.0000   270042         
    103   105        0.0000   440                      0.0000   288723         
    105   107        0.0000    91                      0.0000   289167         
    106   108        0.0000   196                      0.0000   290959         
Elapsed time = 296.02 sec. (289432.47 ticks, tree = 3.70 MB, solutions = 0)
    108   110        0.0000   101                      0.0000   291148         
    110   112        0.0000   101                      0.0000   292354         
    111   113        0.0000   213                      0.0000   297329         
    113   115        0.0000   134                      0.0000   300017         
    116   118        0.0000   109                      0.0000   300893         
    119   121        0.0000    83                      0.0000   302415         
    121   123        0.0000    83                      0.0000   302506         
    124   126        0.0000    85                      0.0000   302648         
    127   129        0.0000    83                      0.0000   302753         
    130   132        0.0000    87                      0.0000   303185         
Elapsed time = 310.66 sec. (303300.41 ticks, tree = 4.64 MB, solutions = 0)
    133   135        0.0000    84                      0.0000   303317         
    136   138        0.0000    84                      0.0000   304402         
    139   141        0.0000    82                      0.0000   304564         
    142   144        0.0000    82                      0.0000   309603         
    145   147        0.0000    71                      0.0000   312236         
    149   151        0.0000   237                      0.0000   327567         
    151   153        0.0000    70                      0.0000   327657         
    153   155        0.0000    79                      0.0000   328718         
    155   157        0.0000   238                      0.0000   333528         
    158   160        0.0000    64                      0.0000   336090         
Elapsed time = 327.16 sec. (319719.81 ticks, tree = 5.71 MB, solutions = 0)
    160   162        0.0000    55                      0.0000   337050         
    165   167        0.0000    47                      0.0000   338624         
    170   172        0.0000    36                      0.0000   342165         
    172   174        0.0000   318                      0.0000   356523         
    173   175        0.0000    40                      0.0000   357957         
    175   177        0.0000    44                      0.0000   358597         
    177   179        0.0000   269                      0.0000   364783         
    179   181        0.0000   354                      0.0000   377884         
    180   182        0.0000   157                      0.0000   382593         
    181   183        0.0000   321                      0.0000   388914         
Elapsed time = 351.32 sec. (343381.99 ticks, tree = 6.57 MB, solutions = 0)
    183   185        0.0000    94                      0.0000   393343         
    186   188        0.0000    41                      0.0000   393609         
    187   189        0.0000   236                      0.0000   403125         
    188   190        0.0000   236                      0.0000   406861         
    189   191        0.0000   621                      0.0000   418482         
    191   193        0.0000   262                      0.0000   419479         
    194   196        0.0000   215                      0.0000   421267         
    197   199        0.0000   214                      0.0000   421723         
    200   202        0.0000   190                      0.0000   425172         
    204   206        0.0000   168                      0.0000   429709         
Elapsed time = 376.76 sec. (366238.54 ticks, tree = 7.37 MB, solutions = 0)
    208   210        0.0000   158                      0.0000   430520         
    212   214        0.0000   150                      0.0000   431475         
    216   218        0.0000   147                      0.0000   432186         
    220   222        0.0000   149                      0.0000   433659         
    223   225        0.0000   135                      0.0000   439083         
    227   229        0.0000   142                      0.0000   442016         
    231   233        0.0000   133                      0.0000   444983         
    233   235        0.0000   133                      0.0000   448408         
    235   237        0.0000   133                      0.0000   453841         
    246   248        0.0000    92                      0.0000   463645         
Elapsed time = 392.17 sec. (380413.21 ticks, tree = 9.02 MB, solutions = 0)
    256   258        0.0000    85                      0.0000   475598         
    269   271        0.0000    62                      0.0000   486739         
    281   283        0.0000    46                      0.0000   497312         
    298   300        0.0000    50                      0.0000   508756         
    313   315        0.0000    20                      0.0000   518378         
    323   325        0.0000    26                      0.0000   531909         
    327   329        0.0000    36                      0.0000   547611         
    337   339        0.0000    26                      0.0000   562533         
    351   353        0.0000    24                      0.0000   573703         
    357   359        0.0000    32                      0.0000   588488         
Elapsed time = 434.04 sec. (419842.91 ticks, tree = 13.35 MB, solutions = 0)
    367   367        0.0000    37                      0.0000   609063         
    378   378        0.0000    16                      0.0000   624080         
    387   387        0.0000    24                      0.0000   640073         
    396   396        0.0000    32                      0.0000   658281         
    407   407        0.0000    50                      0.0000   675134         
    413   413        0.0000    40                      0.0000   691510         
    425   425        0.0000    51                      0.0000   711520         
    435   435        0.0000    78                      0.0000   726678         
    446   445        0.0000   100                      0.0000   744015         
    455   454        0.0000    94                      0.0000   766894         
Elapsed time = 478.86 sec. (460359.08 ticks, tree = 17.13 MB, solutions = 0)
    465   464        0.0000   106                      0.0000   791655         
    475   474        0.0000    91                      0.0000   808899         
    481   480        0.0000    89                      0.0000   820776         
    489   488        0.0000   102                      0.0000   841910         
    497   494    infeasible                            0.0000   867327         
    508   503        0.0000   110                      0.0000   897354         

Performing restart 1

Repeating presolve.
Tried aggregator 1 time.
Reduced MIP has 4502 rows, 10000 columns, and 106054 nonzeros.
Reduced MIP has 10000 binaries, 0 generals, 0 SOSs, and 0 indicators.
Presolve time = 0.06 sec. (48.10 ticks)
Tried aggregator 1 time.
Reduced MIP has 4502 rows, 10000 columns, and 106054 nonzeros.
Reduced MIP has 10000 binaries, 0 generals, 0 SOSs, and 0 indicators.
Presolve time = 0.07 sec. (64.22 ticks)
Represolve time = 0.64 sec. (345.74 ticks)
    516     0        0.0000   200                  Cliques: 4   927781         
    516     0        0.0000   212                   Cuts: 216   932078         
*   516+    0                            0.0000        0.0000             0.00%
    516     0        cutoff              0.0000        0.0000   932078    0.00%

Clique cuts applied:  10
Zero-half cuts applied:  45
Gomory fractional cuts applied:  10

Root node processing (before b&c):
  Real time             =  163.81 sec. (165014.68 ticks)
Sequential b&c:
  Real time             =  409.40 sec. (382517.87 ticks)
                          ------------
Total (root+branch&cut) =  573.21 sec. (547532.55 ticks)
Primal:	500
Dual:	500
Status:	Optimal
Time:	573.272
Sequence:
	15
	16
	7
	15
	0
	16
	15
	7
	16
	17
	7
	19
	17
	2
	9
	14
	1
	9
	2
	10
	19
	0
	5
	8
	13
	12
	9
	1
	14
	11
	1
	14
	9
	1
	14
	8
	18
	5
	3
	18
	14
	3
	1
	14
	11
	1
	14
	9
	1
	12
	19
	18
	5
	4
	18
	14
	8
	0
	17
	8
	16
	10
	3
	4
	10
	3
	4
	10
	3
	4
	10
	3
	4
	10
	3
	4
	17
	16
	8
	10
	7
	9
	14
	1
	11
	14
	1
	4
	14
	18
	4
	14
	3
	18
	14
	4
	18
	5
	8
	13
	5
	8
	16
	17
	8
	6
	10
	9
	2
	17
	19
	0
	10
	3
	4
	14
	1
	8
	14
	1
	11
	5
	18
	19
	5
	18
	4
	14
	18
	4
	12
	13
	9
	12
	18
	3
	14
	1
	11
	14
	1
	8
	5
	13
	9
	5
	18
	9
	12
	13
	11
	5
	18
	9
	5
	18
	8
	14
	1
	9
	12
	13
	9
	12
	18
	9
	5
	18
	8
	14
	1
	9
	5
	18
	11
	5
	0
	19
	17
	2
	6
	15
	2
	6
	15
	7
	16
	10
	7
	0
	15
	16
	7
	15
	7
	16
	15
	0
	0
	15
	2
	7
	15
	6
	2
	15
	6
	7
	15
	16
	7
	15
	0
	2
	5
	8
	16
	17
	8
	0
	17
	11
	6
	10
	8
	7
	17
	19
	2
	10
	3
	4
	10
	3
	2
	17
	19
	2
	17
	19
	7
	17
	19
	2
	10
	6
	7
	15
	16
	7
	15
	7
	6
	15
	2
	0
	11
	13
	12
	11
	13
	5
	8
	13
	5
	11
	13
	5
	8
	18
	5
	11
	13
	12
	8
	7
	17
	19
	2
	10
	4
	3
	10
	16
	3
	10
	4
	3
	10
	4
	3
	17
	16
	9
	17
	0
	19
	17
	7
	8
	17
	16
	11
	17
	16
	9
	17
	16
	8
	10
	6
	9
	10
	2
	19
	17
	7
	11
	10
	2
	9
	17
	2
	7
	15
	16
	7
	15
	0
	16
	15
	0
	0
	15
	16
	7
	15
	6
	0
	17
	19
	7
	17
	19
	0
	12
	13
	11
	5
	13
	11
	5
	18
	8
	5
	13
	11
	12
	13
	9
	12
	18
	11
	5
	13
	11
	12
	1
	9
	14
	1
	11
	14
	1
	9
	14
	1
	8
	14
	1
	9
	14
	1
	8
	14
	1
	9
	14
	2
	4
	10
	3
	6
	10
	9
	6
	17
	11
	16
	17
	3
	4
	10
	3
	4
	10
	0
	19
	18
	5
	8
	13
	12
	11
	13
	5
	8
	13
	5
	11
	13
	12
	11
	13
	12
	9
	18
	5
	19
	18
	5
	9
	13
	5
	9
	13
	12
	8
	0
	5
	18
	9
	5
	18
	19
	5
	1
	9
	14
	1
	9
	12
	13
	8
	5
	18
	19
	5
	18
	9
	5
	2
	11
	14
	1
	9
	14
	2
	0
	15
	7
	16
	15
	7
	7
	15
	16
	0
	15
	7
	0
	15
	2
	6
	15
	7
	0
	15
	7
	16
	15
	7
	6
	15
	2
	0
	15
	0
	16
	15
